# Solution for model GasLib-40
# Objective value = 1.0427052851774350e+01
loadshed[innode_1] 0
loadshed[innode_2] 0
loadshed[innode_3] 0
loadshed[innode_4] 0
loadshed[innode_5] 0
loadshed[innode_6] 0
loadshed[innode_7] 0
loadshed[innode_8] 0
loadshed[source_1] -2.1737372640900965e-01
loadshed[source_2] -4.6848740620596407e-02
loadshed[source_3] 3.3017878640822895e-01
loadshed[sink_1] 0
loadshed[sink_2] 0
loadshed[sink_3] 0
loadshed[sink_4] 0
loadshed[sink_5] 0
loadshed[sink_6] 0
loadshed[sink_7] 0
loadshed[sink_8] 0
loadshed[sink_9] 0
loadshed[sink_10] 0
loadshed[sink_11] 0
loadshed[sink_12] 6.3757775399384553e-01
loadshed[sink_13] 0
loadshed[sink_14] 0
loadshed[sink_15] 0
loadshed[sink_16] 0
loadshed[sink_17] 0
loadshed[sink_18] 0
loadshed[sink_19] 0
loadshed[sink_20] 0
loadshed[sink_21] 0
loadshed[sink_22] 0
loadshed[sink_23] 0
loadshed[sink_24] 0
loadshed[sink_25] 0
loadshed[sink_26] 0
loadshed[sink_27] 0
loadshed[sink_28] 0
loadshed[sink_29] 0
flow[source_1,sink_3] 1.9245495056736877e+02
flow[innode_1,sink_16] 1.6354166666666970e+01
flow[innode_6,sink_13] 8.5869449484959457e+00
flow[sink_13,sink_14] -7.7672217181707222e+00
flow[sink_14,sink_10] -2.4121388384837473e+01
flow[sink_25,sink_26] 1.5187553891955463e+02
flow[sink_26,sink_9] 1.3552137225288820e+02
flow[sink_9,sink_18] 1.1916720558622153e+02
flow[sink_26,sink_4] 0
flow[sink_4,sink_20] -5.0301574895337808e+01
flow[sink_18,sink_6] 1.0281303891955486e+02
flow[sink_25,innode_8] -1.5974661723403241e+02
flow[sink_6,sink_7] 53.7505389195544
flow[sink_6,sink_22] 3.2708333333333641e+01
flow[sink_7,sink_24] 3.8635447148225659e+01
flow[sink_22,sink_1] 1.6354166666666970e+01
flow[sink_24,sink_21] 2.2281280481558987e+01
flow[sink_21,sink_12] 5.9271138148923184e+00
flow[sink_7,sink_5] -1.2390748953378647e+00
flow[sink_5,sink_17] -1.7593241562004437e+01
flow[sink_17,sink_4] -3.3947408228671108e+01
flow[sink_17,sink_8] 0
flow[sink_3,sink_23] 16.3541666666697
flow[sink_8,sink_20] -1.6354166666668334e+01
flow[sink_25,sink_20] 8.3009908228672955e+01
flow[sink_25,sink_15] -1.0007994152935944e+02
flow[sink_15,sink_29] -6.4667942383596710e+01
flow[sink_29,sink_28] 1.6354166666667879e+01
flow[sink_29,sink_2] 68.120332479096
flow[sink_2,sink_15] 5.1766165812429335e+01
flow[sink_29,innode_7] -1.6549660819602693e+02
flow[innode_4,sink_19] 4.0496079712742947e+01
flow[sink_19,innode_3] 7.3183888384837942e+01
flow[innode_4,innode_5] 6.5396142005428359e+01
flow[sink_27,innode_5] -6.5396142005428359e+01
flow[sink_27,sink_19] 4.9041975338761695e+01
flow[sink_10,sink_11] 3.2708333333333641e+01
flow[sink_10,innode_2] 0
flow[sink_10,innode_3] -7.3183888384837942e+01
flow[innode_6,sink_25] -8.5869449484959457e+00
flow[sink_11,innode_1] 1.6354166666666970e+01
flow[sink_19,innode_2] 0
flow[source_3,innode_4] 1.0589222171817130e+02
flow[source_2,innode_7] 1.6549660819602693e+02
flow[sink_3,innode_8] 1.5974661723403241e+02
pressure[innode_1] 7.5162577009469047e+01
pressure[innode_2] 7.9372650626237572e+01
pressure[innode_3] 7.9210593192585691e+01
pressure[innode_4] 81.01325
pressure[innode_5] 8.0968267085179420e+01
pressure[innode_6] 7.4206808804024377e+01
pressure[innode_7] 81.01325
pressure[innode_8] 8.0369946620709229e+01
pressure[source_1] 81.01325
pressure[source_2] 81.01325
pressure[source_3] 81.01325
pressure[sink_1] 46.240683347458
pressure[sink_2] 7.4861299162820387e+01
pressure[sink_3] 8.0369946620709229e+01
pressure[sink_4] 5.0727143072912412e+01
pressure[sink_5] 4.8119215739764286e+01
pressure[sink_6] 4.8341760957845374e+01
pressure[sink_7] 4.7603894180373260e+01
pressure[sink_8] 5.3277845073204304e+01
pressure[sink_9] 5.5398999889109078e+01
pressure[sink_10] 7.5314278317072592e+01
pressure[sink_11] 7.5162577009469047e+01
pressure[sink_12] 1.0132500000000002e+00
pressure[sink_13] 7.4159470411535125e+01
pressure[sink_14] 7.4173370516420775e+01
pressure[sink_15] 7.4692294040521986e+01
pressure[sink_16] 7.4140927174651367e+01
pressure[sink_17] 4.9429785068531075e+01
pressure[sink_18] 5.1087175211642929e+01
pressure[sink_19] 7.9372650626237572e+01
pressure[sink_20] 5.4417500496792591e+01
pressure[sink_21] 3.1224414875413542e+00
pressure[sink_22] 4.7304452489813009e+01
pressure[sink_23] 8.0205228609049442e+01
pressure[sink_24] 3.36918596709611
pressure[sink_25] 7.4206808804024377e+01
pressure[sink_26] 6.3510303789477959e+01
pressure[sink_27] 8.0425599945611680e+01
pressure[sink_28] 7.6291581789356840e+01
pressure[sink_29] 7.6586864062974016e+01
interdiction[source_1,sink_3] 0
interdiction[innode_1,sink_16] 0
interdiction[innode_6,sink_13] 0
interdiction[sink_13,sink_14] 0
interdiction[sink_14,sink_10] 0
interdiction[sink_25,sink_26] 0
interdiction[sink_26,sink_9] 0
interdiction[sink_9,sink_18] 0
interdiction[sink_26,sink_4] 1
interdiction[sink_4,sink_20] 0
interdiction[sink_18,sink_6] 0
interdiction[sink_25,innode_8] 0
interdiction[sink_6,sink_7] 0
interdiction[sink_6,sink_22] 0
interdiction[sink_7,sink_24] 0
interdiction[sink_22,sink_1] 0
interdiction[sink_24,sink_21] 0
interdiction[sink_21,sink_12] 0
interdiction[sink_7,sink_5] 0
interdiction[sink_5,sink_17] 0
interdiction[sink_17,sink_4] 0
interdiction[sink_17,sink_8] 1
interdiction[sink_3,sink_23] 0
interdiction[sink_8,sink_20] 0
interdiction[sink_25,sink_20] 0
interdiction[sink_25,sink_15] 0
interdiction[sink_15,sink_29] 0
interdiction[sink_29,sink_28] 0
interdiction[sink_29,sink_2] 0
interdiction[sink_2,sink_15] 0
interdiction[sink_29,innode_7] 0
interdiction[innode_4,sink_19] 0
interdiction[sink_19,innode_3] 0
interdiction[innode_4,innode_5] 0
interdiction[sink_27,innode_5] 0
interdiction[sink_27,sink_19] 0
interdiction[sink_10,sink_11] 0
interdiction[sink_10,innode_2] 1
interdiction[sink_10,innode_3] 0
interdiction[innode_6,sink_25] 0
interdiction[sink_11,innode_1] 0
interdiction[sink_19,innode_2] 0
interdiction[source_3,innode_4] 0
interdiction[source_2,innode_7] 0
interdiction[sink_3,innode_8] 0
WCcheckFlow[source_1,sink_3] 39
WCcheckFlow[innode_1,sink_16] 1
WCcheckFlow[innode_6,sink_13] 13
WCcheckFlow[sink_13,sink_14] 12
WCcheckFlow[sink_14,sink_10] 11
WCcheckFlow[sink_25,sink_26] 15
WCcheckFlow[sink_26,sink_9] 14
WCcheckFlow[sink_9,sink_18] 13
WCcheckFlow[sink_26,sink_4] 0
WCcheckFlow[sink_4,sink_20] 2
WCcheckFlow[sink_18,sink_6] 12
WCcheckFlow[sink_25,innode_8] -36
WCcheckFlow[sink_6,sink_7] 9
WCcheckFlow[sink_6,sink_22] 2
WCcheckFlow[sink_7,sink_24] 3
WCcheckFlow[sink_22,sink_1] 1
WCcheckFlow[sink_24,sink_21] 2
WCcheckFlow[sink_21,sink_12] 1
WCcheckFlow[sink_7,sink_5] 5
WCcheckFlow[sink_5,sink_17] 4
WCcheckFlow[sink_17,sink_4] 3
WCcheckFlow[sink_17,sink_8] 0
WCcheckFlow[sink_3,sink_23] 1
WCcheckFlow[sink_8,sink_20] -1
WCcheckFlow[sink_25,sink_20] 0
WCcheckFlow[sink_25,sink_15] 6
WCcheckFlow[sink_15,sink_29] 5
WCcheckFlow[sink_29,sink_28] 1
WCcheckFlow[sink_29,sink_2] 1
WCcheckFlow[sink_2,sink_15] 0
WCcheckFlow[sink_29,innode_7] 2
WCcheckFlow[innode_4,sink_19] -4
WCcheckFlow[sink_19,innode_3] -6
WCcheckFlow[innode_4,innode_5] 2
WCcheckFlow[sink_27,innode_5] -1
WCcheckFlow[sink_27,sink_19] 0
WCcheckFlow[sink_10,sink_11] 3
WCcheckFlow[sink_10,innode_2] 0
WCcheckFlow[sink_10,innode_3] 7
WCcheckFlow[innode_6,sink_25] -14
WCcheckFlow[sink_11,innode_1] 2
WCcheckFlow[sink_19,innode_2] 1
WCcheckFlow[source_3,innode_4] -1
WCcheckFlow[source_2,innode_7] -1
WCcheckFlow[sink_3,innode_8] 37
